(set-info :smt-lib-version 2.6)
(set-logic QF_LIA)
(set-info :source |
show equivalence of the following terms:
((1 * v0 + 2 * v1) + (4 * v2 + 8 * v3))

v0 + 2 * (v1 + 2 * (v2 + 2 * (v3)))

in arithmetic modulo 2exp10
STATUS: unsat

generated by: Alberto Griggio <alberto.griggio@disi.unitn.it>
|)
(set-info :category "crafted")
(set-info :status unsat)
(declare-fun v0 () Int)
(declare-fun v1 () Int)
(declare-fun v2 () Int)
(declare-fun v3 () Int)
(declare-fun s_0 () Int)
(declare-fun o_0 () Int)
(declare-fun s_1 () Int)
(declare-fun s_2 () Int)
(declare-fun o_1 () Int)
(declare-fun o_2 () Int)
(declare-fun s_3 () Int)
(declare-fun o_3 () Int)
(declare-fun s_4 () Int)
(declare-fun o_4 () Int)
(declare-fun s_5 () Int)
(declare-fun o_5 () Int)
(assert (let ((?v_10 (* v3 2))) (let ((?v_11 (- ?v_10 (* s_3 1024)))) (let ((?v_8 (+ ?v_11 v2))) (let ((?v_9 (- ?v_8 (* o_3 1024))) (?v_16 (* v3 8))) (let ((?v_17 (- ?v_16 (* s_2 1024))) (?v_18 (* v2 4))) (let ((?v_19 (- ?v_18 (* s_1 1024)))) (let ((?v_14 (+ ?v_17 ?v_19))) (let ((?v_15 (- ?v_14 (* o_1 1024))) (?v_22 (* v1 2))) (let ((?v_23 (- ?v_22 (* s_0 1024)))) (let ((?v_20 (+ ?v_23 v0))) (let ((?v_21 (- ?v_20 (* o_0 1024)))) (let ((?v_12 (+ ?v_15 ?v_21))) (let ((?v_13 (- ?v_12 (* o_2 1024))) (?v_6 (- (+ (- (* 4 v3) (* 2048 s_3)) (* 2 v2)) (* 2048 o_3)))) (let ((?v_7 (- ?v_6 (* s_4 1024)))) (let ((?v_4 (+ ?v_7 v1))) (let ((?v_5 (- ?v_4 (* o_4 1024))) (?v_2 (- (+ (- (- (+ (- (* 8 v3) (* 4096 s_3)) (* 4 v2)) (* 4096 o_3)) (* 2048 s_4)) (* 2 v1)) (* 2048 o_4)))) (let ((?v_3 (- ?v_2 (* s_5 1024)))) (let ((?v_0 (+ ?v_3 v0))) (let ((?v_1 (- ?v_0 (* o_5 1024)))) (and (not (= ?v_1 ?v_13)) (and (= (> ?v_0 1024) (= o_5 1)) (and (and (< ?v_1 1024) (<= 0 ?v_1)) (and (and (<= o_5 1) (<= 0 o_5)) (and (= (> ?v_2 1024) (>= s_5 1)) (and (and (< ?v_3 1024) (<= 0 ?v_3)) (and (and (< s_5 2) (<= 0 s_5)) (and (= (> ?v_4 1024) (= o_4 1)) (and (and (< ?v_5 1024) (<= 0 ?v_5)) (and (and (<= o_4 1) (<= 0 o_4)) (and (= (> ?v_6 1024) (>= s_4 1)) (and (and (< ?v_7 1024) (<= 0 ?v_7)) (and (and (< s_4 2) (<= 0 s_4)) (and (= (> ?v_8 1024) (= o_3 1)) (and (and (< ?v_9 1024) (<= 0 ?v_9)) (and (and (<= o_3 1) (<= 0 o_3)) (and (= (> ?v_10 1024) (>= s_3 1)) (and (and (< ?v_11 1024) (<= 0 ?v_11)) (and (and (< s_3 2) (<= 0 s_3)) (and (= (> ?v_12 1024) (= o_2 1)) (and (and (< ?v_13 1024) (<= 0 ?v_13)) (and (and (<= o_2 1) (<= 0 o_2)) (and (= (> ?v_14 1024) (= o_1 1)) (and (and (< ?v_15 1024) (<= 0 ?v_15)) (and (and (<= o_1 1) (<= 0 o_1)) (and (= (> ?v_16 1024) (>= s_2 1)) (and (and (< ?v_17 1024) (<= 0 ?v_17)) (and (and (< s_2 8) (<= 0 s_2)) (and (= (> ?v_18 1024) (>= s_1 1)) (and (and (< ?v_19 1024) (<= 0 ?v_19)) (and (and (< s_1 4) (<= 0 s_1)) (and (= (> ?v_20 1024) (= o_0 1)) (and (and (< ?v_21 1024) (<= 0 ?v_21)) (and (and (<= o_0 1) (<= 0 o_0)) (and (= (> ?v_22 1024) (>= s_0 1)) (and (and (< ?v_23 1024) (<= 0 ?v_23)) (and (and (< s_0 2) (<= 0 s_0)) (and (and (< v3 1024) (>= v3 0)) (and (and (< v2 1024) (>= v2 0)) (and (and (< v1 1024) (>= v1 0)) (and (< v0 1024) (>= v0 0))))))))))))))))))))))))))))))))))))))))))))))))))))))))))))))
(check-sat)
(exit)
